0 3261
1 3151
2 2819
3 2745
4 2676
5 2629
6 2629
7 2629
8 2510
9 2478
10 2397
11 2397
12 2397
13 2278
14 2278
15 2257
16 2111
17 2111
18 2025
19 2014
20 2014
21 2014
22 1967
23 1928
24 1928
25 1928
26 1827
27 1724
28 1724
29 1724
30 1724
31 1724
32 1724
33 1724
34 1724
35 1724
36 1724
37 1609
38 1609
39 1609
40 1609
41 1609
42 1609
43 1570
44 1570
45 1570
46 1570
47 1570
48 1570
49 1570
50 1570
51 1570
52 1570
53 1570
54 1570
55 1570
56 1570
57 1570
58 1570
59 1570
60 1546
61 1546
62 1546
63 1546
64 1540
65 1521
66 1502
67 1502
68 1502
69 1502
70 1502
71 1502
72 1502
73 1483
74 1483
75 1483
76 1483
77 1483
78 1483
79 1483
80 1483
81 1476
82 1414
83 1414
84 1414
85 1414
86 1414
87 1414
88 1414
89 1414
90 1414
91 1414
92 1414
93 1414
94 1414
95 1414
96 1402
97 1402
98 1402
99 1402
100 1402
101 1402
102 1402
103 1402
104 1390
105 1390
106 1390
107 1390
108 1378
109 1378
110 1362
111 1362
112 1362
113 1362
114 1340
115 1340
116 1340
117 1340
118 1340
119 1340
120 1340
121 1340
122 1340
123 1340
124 1340
125 1340
126 1340
127 1340
128 1340
129 1340
130 1340
131 1340
132 1334
133 1334
134 1334
135 1334
136 1334
137 1334
138 1334
139 1334
140 1334
141 1334
142 1320
143 1320
144 1320
145 1320
146 1317
147 1317
148 1317
149 1317
150 1317
151 1317
152 1317
153 1317
154 1317
155 1317
156 1317
157 1317
158 1317
159 1317
160 1317
161 1317
162 1317
163 1317
164 1317
165 1298
166 1298
167 1298
168 1298
169 1298
170 1298
171 1298
172 1298
173 1298
174 1298
175 1289
176 1289
177 1289
178 1289
179 1289
180 1289
181 1289
182 1289
183 1289
184 1289
185 1289
186 1281
187 1281
188 1281
189 1281
190 1281
191 1281
192 1281
193 1281
194 1281
195 1281
196 1275
197 1275
198 1275
199 1275
200 1275
201 1275
202 1270
203 1270
204 1270
205 1270
206 1270
207 1270
208 1253
209 1253
210 1253
211 1253
212 1253
213 1253
214 1253
215 1253
216 1253
217 1247
218 1247
219 1247
220 1247
221 1247
222 1247
223 1247
224 1247
225 1247
226 1238
227 1238
228 1238
229 1238
230 1238
231 1238
232 1238
233 1238
234 1238
235 1238
236 1238
237 1238
238 1238
239 1220
240 1220
241 1220
242 1220
243 1220
244 1220
245 1220
246 1220
247 1220
248 1213
249 1213
250 1213
251 1213
252 1213
253 1213
254 1212
255 1212
256 1212
257 1211
258 1211
259 1211
260 1211
261 1211
262 1211
263 1211
264 1211
265 1208
266 1208
267 1208
268 1208
269 1194
270 1194
271 1194
272 1189
273 1189
274 1189
275 1189
276 1181
277 1181
278 1181
279 1181
280 1181
281 1181
282 1181
283 1181
284 1181
285 1181
286 1181
287 1181
288 1181
289 1181
290 1181
291 1181
292 1181
293 1179
294 1179
295 1179
296 1179
297 1179
298 1179
299 1179
300 1179
301 1179
302 1179
303 1179
304 1145
305 1145
306 1145
307 1145
308 1145
309 1145
310 1145
311 1145
312 1145
313 1145
314 1145
315 1145
316 1145
317 1145
318 1145
319 1145
320 1145
321 1145
322 1145
323 1145
324 1145
325 1145
326 1145
327 1145
328 1145
329 1145
330 1145
331 1145
332 1145
333 1145
334 1145
335 1145
336 1123
337 1123
338 1123
339 1123
340 1123
341 1123
342 1123
343 1123
344 1123
345 1123
346 1123
347 1123
348 1123
349 1123
350 1123
351 1123
352 1123
353 1123
354 1123
355 1123
356 1123
357 1123
358 1123
359 1123
360 1123
361 1123
362 1123
363 1123
364 1123
365 1123
366 1123
367 1123
368 1123
369 1123
370 1123
371 1123
372 1123
373 1123
374 1123
375 1123
376 1123
377 1123
378 1123
379 1123
380 1122
381 1122
382 1122
383 1122
384 1122
385 1122
386 1120
387 1120
388 1120
389 1120
390 1120
391 1120
392 1120
393 1120
394 1120
395 1117
396 1117
397 1117
398 1117
399 1117
400 1117
401 1117
402 1117
403 1117
404 1117
405 1117
406 1117
407 1107
408 1107
409 1107
410 1107
411 1107
412 1097
413 1097
414 1097
415 1097
416 1097
417 1097
418 1097
419 1097
420 1097
421 1097
422 1097
423 1097
424 1097
425 1097
426 1097
427 1097
428 1097
429 1097
430 1097
431 1097
432 1097
433 1097
434 1097
435 1097
436 1097
437 1097
438 1097
439 1091
440 1091
441 1091
442 1091
443 1091
444 1091
445 1091
446 1091
447 1091
448 1091
449 1091
450 1091
451 1091
452 1091
453 1091
454 1091
455 1091
456 1091
457 1091
458 1091
459 1091
460 1091
461 1091
462 1091
463 1091
464 1091
465 1091
466 1091
467 1091
468 1091
469 1091
470 1091
471 1091
472 1091
473 1091
474 1091
475 1091
476 1091
477 1091
478 1083
479 1083
480 1083
481 1083
482 1071
483 1071
484 1071
485 1071
486 1071
487 1071
488 1071
489 1071
490 1071
491 1071
492 1071
493 1071
494 1071
495 1071
496 1071
497 1071
498 1071
499 1071
500 1071
501 1071
502 1071
503 1071
504 1071
505 1071
506 1071
507 1071
508 1071
509 1071
510 1071
511 1071
512 1071
513 1071
514 1071
515 1071
516 1071
517 1071
518 1071
519 1071
520 1071
521 1071
522 1071
523 1071
524 1071
525 1071
526 1071
527 1071
528 1071
529 1071
530 1071
531 1064
532 1064
533 1064
534 1064
535 1064
536 1064
537 1064
538 1064
539 1064
540 1064
541 1064
542 1064
543 1064
544 1064
545 1064
546 1064
547 1064
548 1064
549 1064
550 1064
551 1064
552 1064
553 1064
554 1064
555 1064
556 1064
557 1064
558 1064
559 1064
560 1064
561 1064
562 1064
563 1064
564 1064
565 1064
566 1064
567 1064
568 1064
569 1064
570 1064
571 1064
572 1064
573 1064
574 1064
575 1064
576 1064
577 1064
578 1064
579 1064
580 1064
581 1064
582 1064
583 1064
584 1064
585 1064
586 1064
587 1064
588 1064
589 1064
590 1064
591 1064
592 1064
593 1064
594 1064
595 1064
596 1064
597 1064
598 1064
599 1060
600 1060
601 1060
602 1060
603 1060
604 1060
605 1060
606 1060
607 1060
608 1060
609 1060
610 1060
611 1059
612 1059
613 1059
614 1059
615 1059
616 1059
617 1059
618 1059
619 1059
620 1059
621 1059
622 1059
623 1059
624 1059
625 1059
626 1059
627 1059
628 1058
629 1058
630 1058
631 1058
632 1058
633 1058
634 1058
635 1058
636 1058
637 1058
638 1058
639 1058
640 1058
641 1058
642 1058
643 1058
644 1058
645 1047
646 1047
647 1047
648 1047
649 1047
650 1047
651 1047
652 1047
653 1047
654 1047
655 1047
656 1047
657 1047
658 1047
659 1047
660 1047
661 1047
662 1047
663 1047
664 1047
665 1047
666 1047
667 1047
668 1047
669 1047
670 1047
671 1047
672 1047
673 1047
674 1047
675 1047
676 1047
677 1047
678 1047
679 1047
680 1047
681 1047
682 1047
683 1047
684 1047
685 1047
686 1047
687 1047
688 1047
689 1047
690 1047
691 1047
692 1047
693 1047
694 1047
695 1047
696 1047
697 1047
698 1047
699 1047
700 1047
701 1043
702 1043
703 1043
704 1043
705 1043
706 1043
707 1043
708 1043
709 1043
710 1043
711 1043
712 1043
713 1043
714 1043
715 1043
716 1043
717 1043
718 1043
719 1043
720 1043
721 1043
722 1043
723 1043
724 1043
725 1043
726 1043
727 1043
728 1043
729 1043
730 1043
731 1043
732 1043
733 1043
734 1043
735 1037
736 1037
737 1037
738 1037
739 1037
740 1037
741 1037
742 1037
743 1037
744 1037
745 1037
746 1037
747 1037
748 1037
749 1037
750 1037
751 1037
752 1037
753 1037
754 1037
755 1037
756 1037
757 1037
758 1037
759 1037
760 1037
761 1037
762 1037
763 1037
764 1037
765 1037
766 1037
767 1037
768 1037
769 1037
770 1037
771 1037
772 1037
773 1037
774 1037
775 1035
776 1035
777 1035
778 1035
779 1035
780 1035
781 1035
782 1035
783 1034
784 1034
785 1034
786 1034
787 1034
788 1034
789 1034
790 1034
791 1034
792 1034
793 1034
794 1034
795 1033
796 1033
797 1033
798 1032
799 1032
800 1032
801 1032
802 1032
803 1032
804 1032
805 1032
806 1032
807 1032
808 1032
809 1032
810 1032
811 1032
812 1032
813 1032
814 1032
815 1032
816 1032
817 1032
818 1032
819 1032
820 1032
821 1032
822 1032
823 1032
824 1032
825 1031
826 1031
827 1031
828 1031
829 1030
830 1030
831 1030
832 1030
833 1030
834 1030
835 1030
836 1030
837 1030
838 1030
839 1030
840 1030
841 1030
842 1030
843 1030
844 1030
845 1030
846 1030
847 1029
848 1029
849 1029
850 1029
851 1029
852 1027
853 1027
854 1027
855 1027
856 1027
857 1027
858 1027
859 1027
860 1027
861 1027
862 1027
863 1027
864 1027
865 1027
866 1026
867 1026
868 1026
869 1026
870 1026
871 1026
872 1026
873 1026
874 1026
875 1026
876 1026
877 1026
878 1026
879 1026
880 1025
881 1025
882 1025
883 1025
884 1025
885 1025
886 1025
887 1025
888 1025
889 1025
890 1025
891 1025
892 1025
893 1025
894 1025
895 1025
896 1025
897 1025
898 1025
899 1025
900 1025
901 1025
902 1025
903 1025
904 1025
905 1024
906 1024
907 1024
908 1024
909 1022
910 1022
911 1022
912 1022
913 1022
914 1022
915 1022
916 1022
917 1022
918 1022
919 1022
920 1022
921 1022
922 1022
923 1022
924 1022
925 1022
926 1022
927 1022
928 1022
929 1022
930 1022
931 1022
932 1022
933 1022
934 1022
935 1022
936 1022
937 1022
938 1022
939 1022
940 1022
941 1022
942 1022
943 1022
944 1022
945 1022
946 1022
947 1022
948 1022
949 1022
950 1022
951 1019
952 1019
953 1019
954 1019
955 1019
956 1019
957 1019
958 1019
959 1019
960 1019
961 1019
962 1019
963 1019
964 1019
965 1019
966 1019
967 1019
968 1019
969 1019
970 1019
971 1019
972 1019
973 1019
974 1019
975 1019
976 1019
977 1019
978 1019
979 1019
980 1019
981 1019
982 1019
983 1019
984 1019
985 1019
986 1019
987 1019
988 1019
989 1019
990 1019
991 1019
992 1019
993 1019
994 1019
995 1019
996 1019
997 1019
998 1019
999 1019
Best: [[28,33,36,26],
       [34,3,29,12,31,16],
       [18,35,32,20,14],
       [27,11,13,23,24,22,10],
       [15,7,21,9,6,4,2,19,5],
       [25,17,8,37,30]], fitness: 1019
